objective value:                                  -68
t_x26                                               1 	(obj:-100)
t_y26_369                                           1 	(obj:1)
t_y26_491                                           1 	(obj:1)
t_y26_141                                           1 	(obj:1)
t_y26_432                                           1 	(obj:1)
t_y26_195                                           1 	(obj:1)
t_y26_281                                           1 	(obj:1)
t_y26_59                                            1 	(obj:1)
t_y26_303                                           1 	(obj:1)
t_y26_179                                           1 	(obj:1)
t_y26_34                                            1 	(obj:1)
t_y26_498                                           1 	(obj:1)
t_y26_423                                           1 	(obj:1)
t_y26_83                                            1 	(obj:1)
t_y26_496                                           1 	(obj:1)
t_y26_146                                           1 	(obj:1)
t_y26_122                                           1 	(obj:1)
t_y26_419                                           1 	(obj:1)
t_y26_391                                           1 	(obj:1)
t_y26_411                                           1 	(obj:1)
t_y26_508                                           1 	(obj:1)
t_y26_320                                           1 	(obj:1)
t_y26_487                                           1 	(obj:1)
t_y26_428                                           1 	(obj:1)
t_y26_241                                           1 	(obj:1)
t_y26_304                                           1 	(obj:1)
t_y26_89                                            1 	(obj:1)
t_y26_483                                           1 	(obj:1)
t_y26_319                                           1 	(obj:1)
t_y26_316                                           1 	(obj:1)
t_y26_251                                           1 	(obj:1)
t_y26_172                                           1 	(obj:1)
t_y26_105                                           1 	(obj:1)
